(set-info :status unsat)
(set-info :source | KeYmaera example: dccs-example, node 3895 For more info see: @see "Sarah M.0 Loos, Andre Platzer, and Ligia Nistor.0 Adaptive cruise control: Hybrid, distributed, and now formally verified.0 In Michael Butler and Wolfram Schulte, editors, 17th International Symposium on Formal Methods, FM, Limerick, Ireland, Proceedings, volume 6664 of LNCS, pages 42-56.0 Springer, 2011."|)
(set-info :smt-lib-version 2.0)
(declare-fun v1 () Real)
(declare-fun eps () Real)
(declare-fun A () Real)
(declare-fun B () Real)
(declare-fun t1uscore0dollarskuscore0 () Real)
(declare-fun x2 () Real)
(declare-fun ts1uscore0 () Real)
(declare-fun x1 () Real)
(declare-fun x1uscore2dollarskuscore0 () Real)
(declare-fun v1uscore2dollarskuscore0 () Real)
(assert (not (exists ((ts1uscore0 Real)) (=> (and (and (and (and (and (and (and (and (and (and (and (=> (and (<= 0.0 ts1uscore0) (<= ts1uscore0 t1uscore0dollarskuscore0)) (and (>= (+ (* A ts1uscore0) v1uscore2dollarskuscore0) 0.0) (<= ts1uscore0 eps))) (>= t1uscore0dollarskuscore0 0.0)) (< (+ (+ x1uscore2dollarskuscore0 (* (* v1uscore2dollarskuscore0 v1uscore2dollarskuscore0) (/ 1.0 (* 2.0 B)))) (* (+ (/ A B) 1.) (+ (* (* A (* eps eps)) (/ 1.0 2.0)) (* eps v1uscore2dollarskuscore0)))) x2)) (< (+ x1uscore2dollarskuscore0 (* (* v1uscore2dollarskuscore0 v1uscore2dollarskuscore0) (/ 1.0 (* 2.0 B)))) x2)) (< x1uscore2dollarskuscore0 x2)) (>= v1uscore2dollarskuscore0 0.0)) (< x1 x2)) (>= v1 0.0)) (> B 0.0)) (> eps 0.0)) (> A 0.0)) (< (+ x1 (* (* v1 v1) (/ 1.0 (* 2.0 B)))) x2)) (< (+ (* (/ 1.0 2.0) (+ (+ (* A (* t1uscore0dollarskuscore0 t1uscore0dollarskuscore0)) (* (* 2.0 t1uscore0dollarskuscore0) v1uscore2dollarskuscore0)) (* 2.0 x1uscore2dollarskuscore0))) (* (* (+ (* A t1uscore0dollarskuscore0) v1uscore2dollarskuscore0) (+ (* A t1uscore0dollarskuscore0) v1uscore2dollarskuscore0)) (/ 1.0 (* 2.0 B)))) x2)))))
(check-sat)

